<number of tasks>
50

<cycle time>
1000

<order strength>
0.205


<task times>
1 488
2 179
3 292
4 130
5 90
6 303
7 132
8 42
9 488
10 271
11 109
12 242
13 167
14 88
15 224
16 168
17 160
18 54
19 124
20 410
21 258
22 182
23 117
24 229
25 191
26 145
27 285
28 76
29 41
30 165
31 40
32 111
33 49
34 457
35 270
36 488
37 547
38 514
39 453
40 239
41 535
42 101
43 344
44 113
45 272
46 124
47 273
48 358
49 267
50 121

<precedence relations>
1,8
1,9
1,25
1,27
2,10
2,17
2,18
3,11
3,12
4,27
5,18
5,19
5,26
6,18
6,26
6,35
8,13
9,14
10,15
11,16
11,20
12,17
12,18
12,19
12,27
13,22
14,21
15,25
16,23
17,24
17,26
17,28
17,35
18,28
19,29
20,27
21,30
22,35
23,34
24,31
24,32
24,46
24,48
25,36
25,49
26,33
26,36
26,41
26,44
29,35
30,41
31,38
32,39
33,40
34,37
36,45
37,42
38,43
39,44
40,45
41,46
42,48
43,47
44,49
45,50

<end>
